c description: Subset cardinality formula for fast_gnp_random_graph(4,10,0.8)
c generator: CNFgen (0.9.0)
c copyright: (C) 2012-2020 Massimo Lauria <massimo.lauria@uniroma1.it>
c url: https://massimolauria.net/cnfgen
c
p cnf 34 524
1 2 3 4 0
1 2 3 5 0
1 2 3 6 0
1 2 4 5 0
1 2 4 6 0
1 2 5 6 0
1 3 4 5 0
1 3 4 6 0
1 3 5 6 0
1 4 5 6 0
2 3 4 5 0
2 3 4 6 0
2 3 5 6 0
2 4 5 6 0
3 4 5 6 0
7 8 9 10 11 0
7 8 9 10 12 0
7 8 9 10 13 0
7 8 9 10 14 0
7 8 9 11 12 0
7 8 9 11 13 0
7 8 9 11 14 0
7 8 9 12 13 0
7 8 9 12 14 0
7 8 9 13 14 0
7 8 10 11 12 0
7 8 10 11 13 0
7 8 10 11 14 0
7 8 10 12 13 0
7 8 10 12 14 0
7 8 10 13 14 0
7 8 11 12 13 0
7 8 11 12 14 0
7 8 11 13 14 0
7 8 12 13 14 0
7 9 10 11 12 0
7 9 10 11 13 0
7 9 10 11 14 0
7 9 10 12 13 0
7 9 10 12 14 0
7 9 10 13 14 0
7 9 11 12 13 0
7 9 11 12 14 0
7 9 11 13 14 0
7 9 12 13 14 0
7 10 11 12 13 0
7 10 11 12 14 0
7 10 11 13 14 0
7 10 12 13 14 0
7 11 12 13 14 0
8 9 10 11 12 0
8 9 10 11 13 0
8 9 10 11 14 0
8 9 10 12 13 0
8 9 10 12 14 0
8 9 10 13 14 0
8 9 11 12 13 0
8 9 11 12 14 0
8 9 11 13 14 0
8 9 12 13 14 0
8 10 11 12 13 0
8 10 11 12 14 0
8 10 11 13 14 0
8 10 12 13 14 0
8 11 12 13 14 0
9 10 11 12 13 0
9 10 11 12 14 0
9 10 11 13 14 0
9 10 12 13 14 0
9 11 12 13 14 0
10 11 12 13 14 0
15 16 17 18 19 20 0
15 16 17 18 19 21 0
15 16 17 18 19 22 0
15 16 17 18 19 23 0
15 16 17 18 19 24 0
15 16 17 18 20 21 0
15 16 17 18 20 22 0
15 16 17 18 20 23 0
15 16 17 18 20 24 0
15 16 17 18 21 22 0
15 16 17 18 21 23 0
15 16 17 18 21 24 0
15 16 17 18 22 23 0
15 16 17 18 22 24 0
15 16 17 18 23 24 0
15 16 17 19 20 21 0
15 16 17 19 20 22 0
15 16 17 19 20 23 0
15 16 17 19 20 24 0
15 16 17 19 21 22 0
15 16 17 19 21 23 0
15 16 17 19 21 24 0
15 16 17 19 22 23 0
15 16 17 19 22 24 0
15 16 17 19 23 24 0
15 16 17 20 21 22 0
15 16 17 20 21 23 0
15 16 17 20 21 24 0
15 16 17 20 22 23 0
15 16 17 20 22 24 0
15 16 17 20 23 24 0
15 16 17 21 22 23 0
15 16 17 21 22 24 0
15 16 17 21 23 24 0
15 16 17 22 23 24 0
15 16 18 19 20 21 0
15 16 18 19 20 22 0
15 16 18 19 20 23 0
15 16 18 19 20 24 0
15 16 18 19 21 22 0
15 16 18 19 21 23 0
15 16 18 19 21 24 0
15 16 18 19 22 23 0
15 16 18 19 22 24 0
15 16 18 19 23 24 0
15 16 18 20 21 22 0
15 16 18 20 21 23 0
15 16 18 20 21 24 0
15 16 18 20 22 23 0
15 16 18 20 22 24 0
15 16 18 20 23 24 0
15 16 18 21 22 23 0
15 16 18 21 22 24 0
15 16 18 21 23 24 0
15 16 18 22 23 24 0
15 16 19 20 21 22 0
15 16 19 20 21 23 0
15 16 19 20 21 24 0
15 16 19 20 22 23 0
15 16 19 20 22 24 0
15 16 19 20 23 24 0
15 16 19 21 22 23 0
15 16 19 21 22 24 0
15 16 19 21 23 24 0
15 16 19 22 23 24 0
15 16 20 21 22 23 0
15 16 20 21 22 24 0
15 16 20 21 23 24 0
15 16 20 22 23 24 0
15 16 21 22 23 24 0
15 17 18 19 20 21 0
15 17 18 19 20 22 0
15 17 18 19 20 23 0
15 17 18 19 20 24 0
15 17 18 19 21 22 0
15 17 18 19 21 23 0
15 17 18 19 21 24 0
15 17 18 19 22 23 0
15 17 18 19 22 24 0
15 17 18 19 23 24 0
15 17 18 20 21 22 0
15 17 18 20 21 23 0
15 17 18 20 21 24 0
15 17 18 20 22 23 0
15 17 18 20 22 24 0
15 17 18 20 23 24 0
15 17 18 21 22 23 0
15 17 18 21 22 24 0
15 17 18 21 23 24 0
15 17 18 22 23 24 0
15 17 19 20 21 22 0
15 17 19 20 21 23 0
15 17 19 20 21 24 0
15 17 19 20 22 23 0
15 17 19 20 22 24 0
15 17 19 20 23 24 0
15 17 19 21 22 23 0
15 17 19 21 22 24 0
15 17 19 21 23 24 0
15 17 19 22 23 24 0
15 17 20 21 22 23 0
15 17 20 21 22 24 0
15 17 20 21 23 24 0
15 17 20 22 23 24 0
15 17 21 22 23 24 0
15 18 19 20 21 22 0
15 18 19 20 21 23 0
15 18 19 20 21 24 0
15 18 19 20 22 23 0
15 18 19 20 22 24 0
15 18 19 20 23 24 0
15 18 19 21 22 23 0
15 18 19 21 22 24 0
15 18 19 21 23 24 0
15 18 19 22 23 24 0
15 18 20 21 22 23 0
15 18 20 21 22 24 0
15 18 20 21 23 24 0
15 18 20 22 23 24 0
15 18 21 22 23 24 0
15 19 20 21 22 23 0
15 19 20 21 22 24 0
15 19 20 21 23 24 0
15 19 20 22 23 24 0
15 19 21 22 23 24 0
15 20 21 22 23 24 0
16 17 18 19 20 21 0
16 17 18 19 20 22 0
16 17 18 19 20 23 0
16 17 18 19 20 24 0
16 17 18 19 21 22 0
16 17 18 19 21 23 0
16 17 18 19 21 24 0
16 17 18 19 22 23 0
16 17 18 19 22 24 0
16 17 18 19 23 24 0
16 17 18 20 21 22 0
16 17 18 20 21 23 0
16 17 18 20 21 24 0
16 17 18 20 22 23 0
16 17 18 20 22 24 0
16 17 18 20 23 24 0
16 17 18 21 22 23 0
16 17 18 21 22 24 0
16 17 18 21 23 24 0
16 17 18 22 23 24 0
16 17 19 20 21 22 0
16 17 19 20 21 23 0
16 17 19 20 21 24 0
16 17 19 20 22 23 0
16 17 19 20 22 24 0
16 17 19 20 23 24 0
16 17 19 21 22 23 0
16 17 19 21 22 24 0
16 17 19 21 23 24 0
16 17 19 22 23 24 0
16 17 20 21 22 23 0
16 17 20 21 22 24 0
16 17 20 21 23 24 0
16 17 20 22 23 24 0
16 17 21 22 23 24 0
16 18 19 20 21 22 0
16 18 19 20 21 23 0
16 18 19 20 21 24 0
16 18 19 20 22 23 0
16 18 19 20 22 24 0
16 18 19 20 23 24 0
16 18 19 21 22 23 0
16 18 19 21 22 24 0
16 18 19 21 23 24 0
16 18 19 22 23 24 0
16 18 20 21 22 23 0
16 18 20 21 22 24 0
16 18 20 21 23 24 0
16 18 20 22 23 24 0
16 18 21 22 23 24 0
16 19 20 21 22 23 0
16 19 20 21 22 24 0
16 19 20 21 23 24 0
16 19 20 22 23 24 0
16 19 21 22 23 24 0
16 20 21 22 23 24 0
17 18 19 20 21 22 0
17 18 19 20 21 23 0
17 18 19 20 21 24 0
17 18 19 20 22 23 0
17 18 19 20 22 24 0
17 18 19 20 23 24 0
17 18 19 21 22 23 0
17 18 19 21 22 24 0
17 18 19 21 23 24 0
17 18 19 22 23 24 0
17 18 20 21 22 23 0
17 18 20 21 22 24 0
17 18 20 21 23 24 0
17 18 20 22 23 24 0
17 18 21 22 23 24 0
17 19 20 21 22 23 0
17 19 20 21 22 24 0
17 19 20 21 23 24 0
17 19 20 22 23 24 0
17 19 21 22 23 24 0
17 20 21 22 23 24 0
18 19 20 21 22 23 0
18 19 20 21 22 24 0
18 19 20 21 23 24 0
18 19 20 22 23 24 0
18 19 21 22 23 24 0
18 20 21 22 23 24 0
19 20 21 22 23 24 0
25 26 27 28 29 30 0
25 26 27 28 29 31 0
25 26 27 28 29 32 0
25 26 27 28 29 33 0
25 26 27 28 29 34 0
25 26 27 28 30 31 0
25 26 27 28 30 32 0
25 26 27 28 30 33 0
25 26 27 28 30 34 0
25 26 27 28 31 32 0
25 26 27 28 31 33 0
25 26 27 28 31 34 0
25 26 27 28 32 33 0
25 26 27 28 32 34 0
25 26 27 28 33 34 0
25 26 27 29 30 31 0
25 26 27 29 30 32 0
25 26 27 29 30 33 0
25 26 27 29 30 34 0
25 26 27 29 31 32 0
25 26 27 29 31 33 0
25 26 27 29 31 34 0
25 26 27 29 32 33 0
25 26 27 29 32 34 0
25 26 27 29 33 34 0
25 26 27 30 31 32 0
25 26 27 30 31 33 0
25 26 27 30 31 34 0
25 26 27 30 32 33 0
25 26 27 30 32 34 0
25 26 27 30 33 34 0
25 26 27 31 32 33 0
25 26 27 31 32 34 0
25 26 27 31 33 34 0
25 26 27 32 33 34 0
25 26 28 29 30 31 0
25 26 28 29 30 32 0
25 26 28 29 30 33 0
25 26 28 29 30 34 0
25 26 28 29 31 32 0
25 26 28 29 31 33 0
25 26 28 29 31 34 0
25 26 28 29 32 33 0
25 26 28 29 32 34 0
25 26 28 29 33 34 0
25 26 28 30 31 32 0
25 26 28 30 31 33 0
25 26 28 30 31 34 0
25 26 28 30 32 33 0
25 26 28 30 32 34 0
25 26 28 30 33 34 0
25 26 28 31 32 33 0
25 26 28 31 32 34 0
25 26 28 31 33 34 0
25 26 28 32 33 34 0
25 26 29 30 31 32 0
25 26 29 30 31 33 0
25 26 29 30 31 34 0
25 26 29 30 32 33 0
25 26 29 30 32 34 0
25 26 29 30 33 34 0
25 26 29 31 32 33 0
25 26 29 31 32 34 0
25 26 29 31 33 34 0
25 26 29 32 33 34 0
25 26 30 31 32 33 0
25 26 30 31 32 34 0
25 26 30 31 33 34 0
25 26 30 32 33 34 0
25 26 31 32 33 34 0
25 27 28 29 30 31 0
25 27 28 29 30 32 0
25 27 28 29 30 33 0
25 27 28 29 30 34 0
25 27 28 29 31 32 0
25 27 28 29 31 33 0
25 27 28 29 31 34 0
25 27 28 29 32 33 0
25 27 28 29 32 34 0
25 27 28 29 33 34 0
25 27 28 30 31 32 0
25 27 28 30 31 33 0
25 27 28 30 31 34 0
25 27 28 30 32 33 0
25 27 28 30 32 34 0
25 27 28 30 33 34 0
25 27 28 31 32 33 0
25 27 28 31 32 34 0
25 27 28 31 33 34 0
25 27 28 32 33 34 0
25 27 29 30 31 32 0
25 27 29 30 31 33 0
25 27 29 30 31 34 0
25 27 29 30 32 33 0
25 27 29 30 32 34 0
25 27 29 30 33 34 0
25 27 29 31 32 33 0
25 27 29 31 32 34 0
25 27 29 31 33 34 0
25 27 29 32 33 34 0
25 27 30 31 32 33 0
25 27 30 31 32 34 0
25 27 30 31 33 34 0
25 27 30 32 33 34 0
25 27 31 32 33 34 0
25 28 29 30 31 32 0
25 28 29 30 31 33 0
25 28 29 30 31 34 0
25 28 29 30 32 33 0
25 28 29 30 32 34 0
25 28 29 30 33 34 0
25 28 29 31 32 33 0
25 28 29 31 32 34 0
25 28 29 31 33 34 0
25 28 29 32 33 34 0
25 28 30 31 32 33 0
25 28 30 31 32 34 0
25 28 30 31 33 34 0
25 28 30 32 33 34 0
25 28 31 32 33 34 0
25 29 30 31 32 33 0
25 29 30 31 32 34 0
25 29 30 31 33 34 0
25 29 30 32 33 34 0
25 29 31 32 33 34 0
25 30 31 32 33 34 0
26 27 28 29 30 31 0
26 27 28 29 30 32 0
26 27 28 29 30 33 0
26 27 28 29 30 34 0
26 27 28 29 31 32 0
26 27 28 29 31 33 0
26 27 28 29 31 34 0
26 27 28 29 32 33 0
26 27 28 29 32 34 0
26 27 28 29 33 34 0
26 27 28 30 31 32 0
26 27 28 30 31 33 0
26 27 28 30 31 34 0
26 27 28 30 32 33 0
26 27 28 30 32 34 0
26 27 28 30 33 34 0
26 27 28 31 32 33 0
26 27 28 31 32 34 0
26 27 28 31 33 34 0
26 27 28 32 33 34 0
26 27 29 30 31 32 0
26 27 29 30 31 33 0
26 27 29 30 31 34 0
26 27 29 30 32 33 0
26 27 29 30 32 34 0
26 27 29 30 33 34 0
26 27 29 31 32 33 0
26 27 29 31 32 34 0
26 27 29 31 33 34 0
26 27 29 32 33 34 0
26 27 30 31 32 33 0
26 27 30 31 32 34 0
26 27 30 31 33 34 0
26 27 30 32 33 34 0
26 27 31 32 33 34 0
26 28 29 30 31 32 0
26 28 29 30 31 33 0
26 28 29 30 31 34 0
26 28 29 30 32 33 0
26 28 29 30 32 34 0
26 28 29 30 33 34 0
26 28 29 31 32 33 0
26 28 29 31 32 34 0
26 28 29 31 33 34 0
26 28 29 32 33 34 0
26 28 30 31 32 33 0
26 28 30 31 32 34 0
26 28 30 31 33 34 0
26 28 30 32 33 34 0
26 28 31 32 33 34 0
26 29 30 31 32 33 0
26 29 30 31 32 34 0
26 29 30 31 33 34 0
26 29 30 32 33 34 0
26 29 31 32 33 34 0
26 30 31 32 33 34 0
27 28 29 30 31 32 0
27 28 29 30 31 33 0
27 28 29 30 31 34 0
27 28 29 30 32 33 0
27 28 29 30 32 34 0
27 28 29 30 33 34 0
27 28 29 31 32 33 0
27 28 29 31 32 34 0
27 28 29 31 33 34 0
27 28 29 32 33 34 0
27 28 30 31 32 33 0
27 28 30 31 32 34 0
27 28 30 31 33 34 0
27 28 30 32 33 34 0
27 28 31 32 33 34 0
27 29 30 31 32 33 0
27 29 30 31 32 34 0
27 29 30 31 33 34 0
27 29 30 32 33 34 0
27 29 31 32 33 34 0
27 30 31 32 33 34 0
28 29 30 31 32 33 0
28 29 30 31 32 34 0
28 29 30 31 33 34 0
28 29 30 32 33 34 0
28 29 31 32 33 34 0
28 30 31 32 33 34 0
29 30 31 32 33 34 0
-15 -25 0
-1 -7 -16 0
-1 -7 -26 0
-1 -16 -26 0
-7 -16 -26 0
-8 -17 0
-8 -27 0
-17 -27 0
-2 -18 0
-2 -28 0
-18 -28 0
-3 -9 -19 0
-3 -9 -29 0
-3 -19 -29 0
-9 -19 -29 0
-10 -20 0
-10 -30 0
-20 -30 0
-11 -21 0
-11 -31 0
-21 -31 0
-4 -12 -22 0
-4 -12 -32 0
-4 -22 -32 0
-12 -22 -32 0
-5 -13 -23 0
-5 -13 -33 0
-5 -23 -33 0
-13 -23 -33 0
-6 -14 -24 0
-6 -14 -34 0
-6 -24 -34 0
-14 -24 -34 0